p cnf 27 58
1 0
-8 3 0
-8 5 0
8 -3 -5 0
-9 4 0
-9 8 0
9 -4 -8 0
-10 2 0
-10 3 0
10 -2 -3 0
-11 -4 0
-11 6 0
11 4 -6 0
-12 -5 0
-12 -11 0
12 5 11 0
-13 10 0
-13 -12 0
13 -10 12 0
-14 -9 0
-14 -13 0
14 9 13 0
-15 7 0
-15 -14 0
15 -7 14 0
-16 3 0
-16 5 0
16 -3 -5 0
-17 4 0
-17 16 0
17 -4 -16 0
-18 2 0
-18 3 0
18 -2 -3 0
-19 1 0
-19 18 0
19 -1 -18 0
-20 -17 0
-20 -19 0
20 17 19 0
-21 7 0
-21 -20 0
21 -7 20 0
-22 -4 0
-22 6 0
22 4 -6 0
-23 -16 0
-23 -22 0
23 16 22 0
-24 21 0
-24 -23 0
24 -21 23 0
-25 -15 0
-25 24 0
-26 15 0
-26 -24 0
27 25 26 0
-27 0
